RT is False
Default write of storage_offers_DA.csv just to have a file (but constraint should be inactive)
Reading model...
...model read.
creating competitive generators file...
...competitive generators recorded.
Loading data...
.. day-ahead data with real-time VRE data read.
Compiling instance...
...instance created.
Creating Offer Mitigation (model will solve as dispatch if TRUE)...
NOTE: storage offers will not be mitigated
...storage offer mitigation file created
Converting model to MPEC...
...converted
NOTE: initial MIP solve with only storage competitive to get feasible solution
Solving...

Welcome to IBM(R) ILOG(R) CPLEX(R) Interactive Optimizer 12.9.0.0
  with Simplex, Mixed Integer & Barrier Optimizers
5725-A06 5725-A29 5724-Y48 5724-Y49 5724-Y54 5724-Y55 5655-Y21
Copyright IBM Corp. 1988, 2019.  All Rights Reserved.

Type 'help' for a list of available commands.
Type 'help' followed by a command name for more
information on commands.

CPLEX> Logfile 'cplex.log' closed.
Logfile 'C:\Users\Luke\Desktop\test919\logs\tmp4b_rgnik.cplex.log' open.
CPLEX> New value for parallel optimization mode: -1
CPLEX> New value for mixed integer optimality gap tolerance: 0.01
CPLEX> New value for integrality tolerance: 1e-09
CPLEX> New value for feasibility tolerance: 0.01
CPLEX> New value for deterministic time limit in ticks: 75000
CPLEX> Problem 'C:\Users\Luke\Desktop\test919\logs\tmp28rfwp45.pyomo.lp' read.
Read time = 0.20 sec. (14.73 ticks)
CPLEX> Problem name         : C:\Users\Luke\Desktop\test919\logs\tmp28rfwp45.pyomo.lp
Objective sense      : Maximize
Variables            :   53805  [Nneg: 1,  Box: 22000,  Free: 4464,
                                 Binary: 27340]
Objective nonzeros   :    9078
Linear constraints   :  123205  [Less: 41346,  Greater: 59096,  Equal: 22763]
  Nonzeros           :  291705
  RHS nonzeros       :   67491

Variables            : Min LB: -5000.000        Max UB: 1000000.       
Objective nonzeros   : Min   : 0.1750000        Max   : 2500.000       
Linear constraints   :
  Nonzeros           : Min   : 0.1750000        Max   : 1000000.       
  RHS nonzeros       : Min   : 0.1750000        Max   : 1000000.       
CPLEX> CPXPARAM_Parallel                                -1
CPXPARAM_Simplex_Tolerances_Feasibility          0.01
CPXPARAM_DetTimeLimit                            75000
CPXPARAM_MIP_Tolerances_MIPGap                   0.01
CPXPARAM_MIP_Tolerances_Integrality              1.0000000000000001e-09
Tried aggregator 3 times.
MIP Presolve eliminated 88730 rows and 19078 columns.
MIP Presolve added 3354 rows and 0 columns.
MIP Presolve modified 24827 coefficients.
Aggregator did 12965 substitutions.
Reduced MIP has 24864 rows, 21206 columns, and 70883 nonzeros.
Reduced MIP has 8394 binaries, 0 generals, 0 SOSs, and 0 indicators.
Presolve time = 0.25 sec. (173.63 ticks)
Probing fixed 397 vars, tightened 2869 bounds.
Probing time = 1.44 sec. (887.10 ticks)
Tried aggregator 2 times.
MIP Presolve eliminated 893 rows and 795 columns.
MIP Presolve modified 2235 coefficients.
Aggregator did 36 substitutions.
Reduced MIP has 23935 rows, 20375 columns, and 68189 nonzeros.
Reduced MIP has 7997 binaries, 0 generals, 0 SOSs, and 0 indicators.
Presolve time = 0.09 sec. (68.37 ticks)
Probing time = 0.03 sec. (15.76 ticks)
Clique table members: 6258.
MIP emphasis: balance optimality and feasibility.
MIP search method: dynamic search.
Parallel mode: opportunistic, using up to 24 threads.
Root relaxation solution time = 0.30 sec. (429.60 ticks)

        Nodes                                         Cuts/
   Node  Left     Objective  IInf  Best Integer    Best Bound    ItCnt     Gap

      0     0       14.4041   675                     14.4041     2595         
      0     0       14.4041   599                   Cuts: 557     2863         
      0     0       14.4041   530                   Cuts: 272     3018         
      0     0       14.4041   453                   Cuts: 142     3108         
      0     0       14.4041   421                    Cuts: 80     3156         
      0     0       14.4041   391                    Cuts: 73     3194         
      0     0       14.4041   373                    Cuts: 49     3218         
      0     0       14.4041   348                    Cuts: 39     3238         
      0     0       14.4041   336                    Cuts: 23     3250         
      0     0       14.4041   331                    Cuts: 13     3255         
      0     0       14.4041   329                     Cuts: 8     3257         
      0     3    infeasible                           14.4041     3298         
Elapsed time = 10.13 sec. (6764.43 ticks, tree = 0.02 MB, solutions = 0)
    271    53    -1153.7096   307                     14.4041     3855         
    884    69    -1003.4387   316                     14.4041     4523         
   1615   691    -1153.7096   287                     14.4041     5185         
   2452  1714    -1153.7096   281                     14.4041     7152         
   3193  2434    -1153.7096   282                     14.4041     7364         
   4172  2826    -1153.7096   265                     14.4041     7480         
   5098  3735    -1153.7096   264                     14.4041     7549         
   5818  4740   -31441.4411   256                     14.4041     7715         
   6450  4810    -1153.7096   241                     14.4041     7690         
*  7604+ 5834                        -1187.4468       14.4041           101.21%
Elapsed time = 18.05 sec. (9575.24 ticks, tree = 47.22 MB, solutions = 2)
   8750  1362        cutoff          -1153.7096       14.4041    33529  101.25%
   9262  1110       14.4041    15    -1153.7096       14.4041    30738  101.25%
   9462  2137        cutoff          -1153.7096       14.4041    42997  101.25%
   9595  2384       14.4041     7    -1153.7096       14.4041    46825  101.25%
   9698  2390       14.4041     2    -1153.7096       14.4041    47139  101.25%
   9778  2390        cutoff          -1153.7096       14.4041    46843  101.25%
   9822  2408        cutoff          -1153.7096       14.4041    47780  101.25%
   9849  2410        cutoff          -1153.7096       14.4041    47970  101.25%
*  9854+    0                            0.0000        0.0000             0.00%
   9854     0        cutoff              0.0000        0.0000    56472    0.00%

Implied bound cuts applied:  3
Flow cuts applied:  258
Mixed integer rounding cuts applied:  2
Gomory fractional cuts applied:  26

Root node processing (before b&c):
  Real time             =    9.72 sec. (6762.00 ticks)
Parallel b&c, 24 threads:
  Real time             =   18.80 sec. (13461.23 ticks)
  Sync time (average)   =    0.53 sec.
  Wait time (average)   =    0.00 sec.
                          ------------
Total (root+branch&cut) =   28.52 sec. (20223.23 ticks)

Solution pool: 5 solutions saved.

MIP - Integer optimal solution:  Objective =  1.1596057448e-09
Solution time =   28.55 sec.  Iterations = 56472  Nodes = 9854
Deterministic time = 20223.39 ticks  (708.42 ticks/sec)

CPLEX> Incumbent solution written to file 'C:\Users\Luke\Desktop\test919\logs\tmpu9er5ib2.cplex.sol'.
CPLEX> NOTE: no warmstart specified for MIP iteration, default behavior is true
NOTE: resolving with all competitive generators using storage-only solution to warmstart
Solving...

Welcome to IBM(R) ILOG(R) CPLEX(R) Interactive Optimizer 12.9.0.0
  with Simplex, Mixed Integer & Barrier Optimizers
5725-A06 5725-A29 5724-Y48 5724-Y49 5724-Y54 5724-Y55 5655-Y21
Copyright IBM Corp. 1988, 2019.  All Rights Reserved.

Type 'help' for a list of available commands.
Type 'help' followed by a command name for more
information on commands.

CPLEX> Logfile 'cplex.log' closed.
Logfile 'C:\Users\Luke\Desktop\test919\logs\tmp0q1ylylq.cplex.log' open.
CPLEX> New value for parallel optimization mode: -1
CPLEX> New value for mixed integer optimality gap tolerance: 0.01
CPLEX> New value for integrality tolerance: 1e-09
CPLEX> New value for feasibility tolerance: 0.01
CPLEX> New value for deterministic time limit in ticks: 75000
CPLEX> Problem 'C:\Users\Luke\Desktop\test919\logs\tmpa_gt71lm.pyomo.lp' read.
Read time = 0.19 sec. (14.75 ticks)
CPLEX> MIP start file 'C:\Users\Luke\Desktop\test919\logs\tmp6lg_r7vw.cplex.mst' read.
CPLEX> Problem name         : C:\Users\Luke\Desktop\test919\logs\tmpa_gt71lm.pyomo.lp
Objective sense      : Maximize
Variables            :   54525  [Nneg: 1,  Box: 22720,  Free: 4464,
                                 Binary: 27340]
Objective nonzeros   :    9798
Linear constraints   :  123205  [Less: 41346,  Greater: 59096,  Equal: 22763]
  Nonzeros           :  291705
  RHS nonzeros       :   67491

Variables            : Min LB: -5000.000        Max UB: 1000000.       
Objective nonzeros   : Min   : 0.1750000        Max   : 2500.000       
Linear constraints   :
  Nonzeros           : Min   : 0.1750000        Max   : 1000000.       
  RHS nonzeros       : Min   : 0.1750000        Max   : 1000000.       
CPLEX> CPXPARAM_Parallel                                -1
CPXPARAM_Simplex_Tolerances_Feasibility          0.01
CPXPARAM_DetTimeLimit                            75000
CPXPARAM_MIP_Tolerances_MIPGap                   0.01
CPXPARAM_MIP_Tolerances_Integrality              1.0000000000000001e-09
Warning:  No solution found from 1 MIP starts.
Retaining values of one MIP start for possible repair.
Tried aggregator 3 times.
MIP Presolve eliminated 88730 rows and 19798 columns.
MIP Presolve added 3354 rows and 0 columns.
MIP Presolve modified 24827 coefficients.
Aggregator did 12965 substitutions.
Reduced MIP has 24864 rows, 21206 columns, and 70883 nonzeros.
Reduced MIP has 8394 binaries, 0 generals, 0 SOSs, and 0 indicators.
Presolve time = 0.23 sec. (173.99 ticks)
Probing fixed 397 vars, tightened 2869 bounds.
Probing time = 1.48 sec. (887.10 ticks)
Tried aggregator 2 times.
MIP Presolve eliminated 893 rows and 795 columns.
MIP Presolve modified 2235 coefficients.
Aggregator did 36 substitutions.
Reduced MIP has 23935 rows, 20375 columns, and 68189 nonzeros.
Reduced MIP has 7997 binaries, 0 generals, 0 SOSs, and 0 indicators.
Presolve time = 0.09 sec. (68.37 ticks)
Probing time = 0.03 sec. (15.76 ticks)
Clique table members: 6258.
MIP emphasis: balance optimality and feasibility.
MIP search method: dynamic search.
Parallel mode: opportunistic, using up to 24 threads.
Root relaxation solution time = 0.31 sec. (429.60 ticks)

        Nodes                                         Cuts/
   Node  Left     Objective  IInf  Best Integer    Best Bound    ItCnt     Gap

      0     0       14.4041   675                     14.4041     2595         
      0     0       14.4041   599                   Cuts: 557     2863         
      0     0       14.4041   530                   Cuts: 272     3018         
      0     0       14.4041   453                   Cuts: 142     3108         
      0     0       14.4041   421                    Cuts: 80     3156         
      0     0       14.4041   391                    Cuts: 73     3194         
      0     0       14.4041   373                    Cuts: 49     3218         
      0     0       14.4041   348                    Cuts: 39     3238         
      0     0       14.4041   336                    Cuts: 23     3250         
      0     0       14.4041   331                    Cuts: 13     3255         
      0     0       14.4041   329                     Cuts: 8     3257         
Repair heuristic found nothing.
      0     3    infeasible                           14.4041     3298         
Elapsed time = 10.30 sec. (6796.67 ticks, tree = 0.02 MB, solutions = 0)
    359    58    -1153.7096   307                     14.4041     3940         
    912   567    -1003.4387   286                     14.4041     6205         
   1157   910    -1153.7096   282                     14.4041     8380         
   1796   979    -1221.3441   273                     14.4041     8489         
   2606  1180    -1221.1840   276                     14.4041     9022         
   3209  1575    -1153.7096   232                     14.4041     9882         
   3868  2632    -1153.7096   229                     14.4041    11379         
   4790  2597    -1153.7096   208                     14.4041    11335         
   5903  4478       14.4041   225                     14.4041    12594         
*  6207+ 2660                        -1071.0731       14.4041           101.34%
Elapsed time = 16.94 sec. (9025.78 ticks, tree = 19.25 MB, solutions = 2)
   7454  2800       14.4041   256    -1071.0731       14.4041    13162  101.34%
   7766  3152        cutoff          -1071.0731       14.4041    14356  101.34%
   8099  4132     -732.1480   166    -1071.0731       14.4041    22386  101.34%
   8263  3935        cutoff          -1071.0731       14.4041    21725  101.34%
*  8267+ 3017                            0.0000        0.0002              --- 
   8267  3016        cutoff              0.0000        0.0000    32488    0.00%

Implied bound cuts applied:  2
Flow cuts applied:  261
Mixed integer rounding cuts applied:  2
Gomory fractional cuts applied:  22

Root node processing (before b&c):
  Real time             =    9.95 sec. (6794.14 ticks)
Parallel b&c, 24 threads:
  Real time             =   14.00 sec. (8630.63 ticks)
  Sync time (average)   =    0.47 sec.
  Wait time (average)   =    0.00 sec.
                          ------------
Total (root+branch&cut) =   23.95 sec. (15424.77 ticks)

Solution pool: 3 solutions saved.

MIP - Integer optimal solution:  Objective =  1.1605152395e-09
Solution time =   23.97 sec.  Iterations = 32488  Nodes = 8267
Deterministic time = 15424.92 ticks  (643.54 ticks/sec)

CPLEX> Incumbent solution written to file 'C:\Users\Luke\Desktop\test919\logs\tmppwojmhjy.cplex.sol'.
CPLEX> Exporting results... 
